3,1,8,1,5,1,11,1,9,1,3,3,2,1,4,1,6,1,10,1,1,1,10,3;8,2,3,2,11,2,9,2,7,1,7,2,2,2,6,2,4,2,10,2,1,2;8,3,5,3,11,3,9,3,7,3,2,3,6,3,4,3,1,3,9,5,1,5;8,4,5,4,3,4,11,4,7,4,2,4,6,4,9,4,4,4,1,4,10,4;5,2,8,5,5,5,3,5,11,5,7,5,2,5,6,5,4,5,10,5;
